50, 670
49, 54
14, 19
21, 26
42, 47
37, 42
35, 40
40, 45
4, 9
37, 42
9, 14
40, 45
14, 19
26, 31
6, 11
18, 23
16, 21
18, 23
34, 39
19, 24
43, 48
47, 52
41, 46
7, 12
50, 55
27, 32
32, 37
37, 42
21, 26
50, 55
3, 8
19, 24
12, 17
24, 29
45, 50
25, 30
9, 14
27, 32
18, 23
33, 38
1, 6
8, 13
40, 45
45, 50
34, 39
42, 47
36, 41
2, 7
13, 18
26, 31
44, 49
